1066
1066
1066
1066
1077
1077
1077
1077
1077
1050
1042
1042
1050
954
1050
1043
996
995
996
996
996
996
1037
1037
1044
1044
1044
1049
1049
1034
1034
1048
1053
1053
1018
1023
1025
958
1038
971
1002
966
966
972
940
981
931
931
931
987
987
910
997
1021
943
946
1015
893
1069
928
928
1026
1026
898
898
898
898
898
940
948
948
948
1000
1000
995
930
947
947
962
895
900
900
900
919
876
939
939
939
969
974
1039
1025
983
1038
935
935
935
1012
1010
1010
907
907
1007
994
976
976
996
930
936
936
964
927
964
964
978
920
920
920
920
858
858
858
858
858
858
858
858
858
858
909
909
909
970
976
976
976
938
938
948
883
883
883
883
1016
968
982
931
982
982
983
1014
1015
1014
982
982
942
969
969
969
931
931
931
876
947
973
901
904
904
883
982
982
831
831
831
831
831
831
831
831
985
989
918
871
918
944
954
954
928
928
976
976
941
986
973
973
973
918
996
937
1000
1005
1005
957
1000
1020
1048
928
928
928
878
878
878
963
932
932
910
910
811
871
929
917
917
917
917
917
935
935
936
936
954
969
969
995
982
850
981
981
981
850
850
894
992
927
927
927
908
927
814
982
936
895
966
1012
951
984
978
925
925
1011
1010
959
919
919
919
919
919
937
1025
994
928
928
928
953
953
953
915
915
915
985
985
942
899
899
923
876
876
876
882
951
982
919
887
886
919
919
931
915
931
971
969
976
932
932
894
933
920
920
920
882
882
882
882
978
996
1012
997
991
847
847
847
938
938
921
921
884
892
892
848
811
811
811
811
811
811
841
841
870
870
870
870
899
924
905
905
905
905
924
924
920
920
772
772
772
772
772
878
845
855
855
855
855
908
908
908
908
908
867
867
837
914
914
881
831
831
831
831
831
888
831
783
783
783
783
820
874
833
833
825
928
901
832
832
832
832
816
816
776
776
776
817
811
811
811
811
771
771
872
869
838
816
816
883
859
869
861
819
819
789
789
874
874
874
874
872
852
852
852
862
821
821
821
850
844
844
874
837
872
832
832
832
819
819
817
817
869
890
890
871
864
864
835
835
865
865
871
860
882
871
829
819
819
823
820
820
820
820
835
724
724
801
816
816
816
724
788
756
756
724
724
724
724
724
743
743
819
784
784
784
784
808
808
808
808
806
806
810
810
853
862
846
824
783
824
754
807
807
807
807
807
807
807
807
807
780
780
744
772
772
772
772
772
772
772
772
751
751
809
809
870
780
780
780
838
799
799
799
833
833
833
841
808
763
763
763
763
763
763
763
763
763
693
693
728
728
728
803
803
803
803
803
803
779
796
803
803
803
788
788
754
733
733
733
733
691
691
691
792
766
766
766
721
711
711
711
740
764
764
768
768
763
763
763
763
680
680
680
680
680
680
795
756
756
756
749
756
779
779
748
734
734
709
709
709
684
751
751
751
709
765
765
749
685
765
706
706
730
730
725
730
712
746
746
746
738
738
755
755
755
702
702
702
746
767
691
691
768
778
742
729
707
679
699
699
699
699
706
719
694
694
724
738
768
768
752
696
675
675
712
712
694
694
705
657
657
678
678
637
637
633
633
633
633
633
633
633
633
635
635
635
618
601
601
601
601
601
601
601
601
601
601
524
524
524
524
593
601
601
601
649
649
649
649
618
618
618
557
557
557
557
557
557
557
557
592
592
583
587
587
587
587
587
587
587
577
577
577
597
556
556
597
576
597
557
558
558
558
558
558
558
558
558
557
557
557
557
569
569
569
520
520
534
569
632
612
567
567
561
561
547
588
588
569
569
569
569
569
581
588
581
581
578
578
578
581
581
549
558
547
547
578
541
541
528
528
528
528
528
550
565
565
561
561
494
494
561
554
561
561
561
560
560
560
560
554
554
560
560
560
550
550
532
532
564
439
564
439
571
528
542
548
548
542
544
543
543
543
543
543
547
547
537
551
536
544
532
480
480
494
520
503
503
503
503
537
554
554
561
511
511
506
476
476
476
476
476
476
506
551
552
552
552
553
531
517
474
474
474
474
474
458
458
458
458
458
458
495
458
458
458
452
448
452
452
452
452
502
502
502
502
437
437
502
439
439
439
473
473
473
473
473
478
478
478
478
478
420
420
464
464
466
491
491
480
480
480
480
480
459
471
471
480
477
480
480
480
480
480
500
460
460
460
503
487
495
452
452
452
452
452
470
470
470
470
477
427
427
477
481
464
458
404
458
458
458
458
458
458
477
461
461
461
456
456
456
456
465
479
457
427
427
456
461
473
425
425
425
425
425
454
454
425
425
420
420
420
420
420
432
432
432
432
425
425
433
445
451
451
454
454
439
439
422
422
422
422
422
439
439
439
439
434
434
432
432
432
432
421
446
438
438
438
438
438
438
438
438
446
446
413
413
413
413
413
394
394
394
394
394
413
406
406
415
415
415
376
415
415
415
415
432
432
405
415
407
415
428
428
415
415
400
405
405
406
406
398
398
398
398
398
398
398
398
398
398
398
398
396
396
396
398
398
392
392
392
371
398
389
389
389
398
395
394
394
394
393
389
389
389
389
394
394
394
394
394
384
384
394
373
373
373
373
371
373
373
373
393
381
395
395
395
395
395
381
381
394
394
394
394
394
394
394
380
376
394
394
394
394
376
394
361
394
394
379
379
379
366
366
366
366
366
366
366
366
366
366
366
366
366
366
366
366
366
361
361
361
361
361
361
361
361
361
366
366
366
366
366
366
361
366
366
366
356
366
366
366
366
366
366
366
366
356
366
366
361
366
355
355
355
361
366
361
361
361
361
361
366
366
361
361
361
361
361
361
342
366
361
366
361
361
361
361
361
361
366
366
366
361
358
342
342
342
342
350
350
358
342
342
342
342
342
342
342
358
358
358
358
358
350
342
342
342
358
342
366
366
361
361
358
361
361
342
361
361
361
361
361
359
359
359
361
361
359
359
359
361
359
359
359
359
359
359
342
342
361
361
361
361
361
358
361
361
361
361
361
358
358
358
358
359
355
361
361
361
361
361
361
361
361
361
361
361
361
361
361
361
361
361
359
361
359
361
359
354
354
354
340
340
340
340
340
340
340
340
340
340
354
354
354
354
354
354
354
359
359
359
359
361
359
359
359
359
359
359
359
359
359
355
355
355
359
359
359
355
355
355
355
355
355
361
361
361
361
361
361
361
361
361
361
361
361
361
361
361
361
361
361
361
358
361
361
361
361
361
361
361
351
351
361
361
355
361
355
355
355
355
355
361
361
361
359
359
359
359
340
340
340
340
340
340
340
340
340
340
340
340
340
340
340
340
340
340
340
340
355
355
355
355
355
355
355
355
355
355
355
355
355
355
355
355
355
355
355
355
355
355
355
355
355
355
355
355
355
355
355
355
355
355
355
355
355
355
355
354
354
354
354
354
355
355
355
355
355
355
355
355
355
355
355
355
355
355
355
355
355
354
354
354
354
355
355
355
355
355
348
348
348
348
348
348
348
348
348
348
348
348
348
348
348
348
348
348
348
348
348
348
348
354
354
354
354
348
348
348
354
354
354
354
354
348
348
348
354
354
354
348
354
354
354
348
348
348
348
354
354
354
350
354
354
354
354
354
354
354
354
354
354
355
355
355
355
355
355
355
355
355
355
355
355
355
355
355
355
355
355
355
355
355
355
355
355
355
355
355
355
355
355
355
355
355
355
355
355
355
355
355
355
355
355
355
355
355
355
355
355
355
355
355
355
355
355
355
355
355
355
355
355
355
354
355
355
355
355
355
355
355
355
355
355
355
355
355
355
355
355
355
355
355
355
355
355
355
355
355
355
355
355
355
355
355
355
355
355
355
355
355
355
355
355
350
350
350
350
350
350
355
355
355
355
355
355
355
355
355
355
350
355
355
355
355
355
355
355
355
355
355
355
355
355
355
355
355
355
355
355
355
340
340
340
340
340
340
340
340
340
340
340
340
340
340
340
340
340
340
340
340
340
340
340
340
340
340
340
340
340
355
355
355
355
355
355
355
355
355
355
355
355
355
355
355
355
355
355
355
355
355
355
355
355
355
355
355
355
355
355
355
355
350
350
350
350
350
350
350
350
350
350
350
350
355
355
355
355
355
355
355
355
355
355
350
350
350
350
348
348
348
348
355
348
348
340
340
340
340
340
340
340
340
340
340
355
355
355
355
355
355
355
340
340
340
340
340
340
340
340
340
340
340
340
340
340
340
340
340
340
340
340
340
340
340
340
340
340
340
340
340
340
340
340
340
340
340
340
340
340
340
340
340
340
340
340
340
340
340
340
340
340
340
340
340
340
340
335
335
335
335
340
340
350
350
350
350
350
340
340
340
340
340
340
340
355
340
340
340
340
340
340
340
340
340
355
355
355
355
355
355
355
355
355
355
350
355
355
350
350
350
355
355
355
355
355
355
355
355
355
355
355
355
355
355
355
355
355
355
355
355
355
340
340
340
355
355
355
355
355
355
355
355
355
355
355
355
340
340
340
348
348
350
350
350
350
355
355
340
340
340
340
340
340
340
340
348
340
340
340
340
340
348
340
355
355
355
355
355
355
355
355
355
348
348
348
